49176.1 0
0 5 6 7 8 17 18 16 15 14 13 12 23 22 24 25 26 27 28 29 30 32 33 34 35 38 37 36 40 41 42 39 31 21 19 20 568 569 570 9 10 11 573 572 571 467 466 465 464 496 497 463 462 461 452 499 500 501 498 502 503 504 505 308 309 310 311 312 313 316 314 315 374 375 376 377 378 379 380 395 396 371 372 370 369 368 367 366 327 326 325 324 323 322 328 329 342 343 341 340 339 338 337 336 335 334 288 289 290 278 279 280 281 287 286 285 284 283 282 277 276 333 332 331 330 344 365 394 393 391 392 390 389 388 387 386 382 425 424 423 422 421 420 426 427 428 429 430 432 433 434 435 436 438 437 431 385 408 407 405 404 400 399 398 397 403 402 401 360 359 358 357 355 354 353 352 351 413 414 415 416 356 412 411 410 418 419 417 349 348 347 350 361 362 363 364 346 345 406 409 384 383 381 373 451 307 304 303 302 301 508 507 506 306 305 318 317 320 321 319 453 459 460 458 457 456 455 454 439 442 446 448 449 441 440 450 447 443 444 445 468 469 470 471 472 473 474 495 494 518 519 520 521 523 526 525 492 491 490 529 528 530 531 532 533 488 534 535 487 486 485 484 536 537 539 538 540 483 481 482 480 479 477 478 476 475 231 230 229 228 227 189 190 191 192 193 219 218 220 221 222 224 223 194 195 196 197 198 199 200 201 202 204 203 205 206 207 208 209 210 211 212 213 214 215 217 216 226 225 186 182 179 181 180 178 177 176 175 172 173 174 108 109 110 111 112 113 161 160 155 156 159 157 158 145 146 147 148 152 149 150 151 144 143 142 153 154 162 168 163 167 166 164 165 114 115 116 128 127 126 125 124 70 69 68 71 72 73 74 75 76 77 78 62 63 61 60 79 80 81 59 58 57 82 83 53 54 52 51 50 84 85 86 87 90 92 93 94 97 96 95 98 99 100 101 551 550 559 558 557 556 560 561 562 563 564 549 548 565 566 567 102 552 553 554 91 46 45 555 44 47 48 49 43 55 56 88 89 64 65 66 67 123 122 121 120 119 118 117 129 130 132 131 133 134 135 136 137 139 140 141 138 107 542 541 543 544 547 546 545 103 104 105 106 170 171 169 183 185 184 188 187 489 233 234 235 236 237 240 243 244 245 247 246 242 241 248 249 250 251 252 254 253 255 256 257 260 259 258 262 263 264 265 266 267 268 269 272 271 270 293 294 295 296 292 291 275 274 273 299 298 297 261 300 239 238 232 493 524 522 517 515 516 514 513 512 527 511 510 509 1 4 2 3 
